4 11 100 1 2
0 200
 1 40.00 50.00 0.00 0.00 0.00 0 0 0 240
 2 25.00 85.00 10.00 20.00 40.00 1 1 1 130 190
 3 22.00 75.00 10.00 30.00 19.00 1 1 1 35 95
 4 22.00 85.00 10.00 10.00 9.00 1 1 1 94 154
 5 20.00 80.00 10.00 40.00 10.00 1 1 1 126 186
 6 20.00 85.00 10.00 20.00 20.00 1 1 1 40 100
 7 18.00 75.00 10.00 20.00 23.00 1 1 1 80 140
 8 15.00 75.00 10.00 20.00 9.00 1 1 1 64 124
 9 15.00 80.00 10.00 10.00 21.00 1 1 1 76 136
 10 10.00 35.00 10.00 20.00 6.00 1 1 1 76 136
 11 10.00 40.00 10.00 30.00 10.00 1 1 1 104 164
 12 8.00 40.00 10.00 40.00 13.00 1 1 1 44 104
 13 8.00 45.00 10.00 20.00 6.00 1 1 1 49 109
 14 5.00 35.00 10.00 10.00 16.00 1 1 1 127 187
 15 5.00 45.00 10.00 10.00 30.00 1 1 1 35 95
 16 2.00 40.00 10.00 20.00 20.00 1 1 1 43 103
 17 0.00 40.00 10.00 20.00 10.00 1 1 1 57 117
 18 0.00 45.00 10.00 20.00 14.00 1 1 1 129 189
 19 44.00 5.00 10.00 20.00 17.00 1 1 1 72 132
 20 42.00 10.00 10.00 40.00 10.00 1 1 1 57 117
 21 42.00 15.00 10.00 10.00 10.00 1 1 1 107 167
 22 40.00 5.00 10.00 10.00 20.00 1 1 1 52 112
 23 40.00 15.00 10.00 40.00 19.00 1 1 1 77 137
 24 38.00 5.00 10.00 30.00 30.00 1 1 1 50 110
 25 38.00 15.00 10.00 10.00 20.00 1 1 1 133 193
 26 35.00 5.00 10.00 20.00 40.00 1 1 1 124 184
 27 95.00 30.00 10.00 30.00 27.00 1 1 1 100 160
 28 95.00 35.00 10.00 20.00 5.00 1 1 1 57 117
 29 92.00 30.00 10.00 10.00 20.00 1 1 1 55 115
 30 90.00 35.00 10.00 10.00 40.00 1 1 1 52 112
 31 88.00 30.00 10.00 10.00 20.00 1 1 1 59 119
 32 88.00 35.00 10.00 20.00 10.00 1 1 1 50 110
 33 87.00 30.00 10.00 10.00 10.00 1 1 1 116 176
 34 85.00 25.00 10.00 10.00 7.00 1 1 1 51 111
 35 85.00 35.00 10.00 30.00 16.00 1 1 1 96 156
 36 67.00 85.00 10.00 20.00 14.00 1 1 1 124 184
 37 65.00 85.00 10.00 40.00 26.00 1 1 1 43 103
 38 65.00 82.00 10.00 10.00 28.00 1 1 1 109 169
 39 62.00 80.00 10.00 30.00 5.00 1 1 1 60 120
 40 60.00 80.00 10.00 10.00 23.00 1 1 1 36 96
 41 60.00 85.00 10.00 30.00 20.00 1 1 1 70 130
 42 58.00 75.00 10.00 20.00 40.00 1 1 1 77 137
 43 55.00 80.00 10.00 10.00 10.00 1 1 1 33 93
 44 55.00 85.00 10.00 20.00 3.00 1 1 1 113 173
 45 55.00 82.00 10.00 10.00 35.00 1 1 1 49 109
 46 20.00 82.00 10.00 10.00 2.00 1 1 1 37 97
 47 18.00 80.00 10.00 10.00 19.00 1 1 1 98 158
 48 2.00 45.00 10.00 10.00 16.00 1 1 1 38 98
 49 42.00 5.00 10.00 10.00 10.00 1 1 1 124 184
 50 42.00 12.00 10.00 10.00 10.00 1 1 1 89 149
 51 72.00 35.00 10.00 30.00 13.00 1 1 1 101 161
 52 55.00 20.00 10.00 19.00 20.00 1 1 1 68 128
 53 25.00 30.00 10.00 3.00 25.00 1 1 1 37 97
 54 20.00 50.00 10.00 5.00 3.00 1 1 1 76 136
 55 55.00 60.00 10.00 16.00 30.00 1 1 1 124 184
 56 30.00 60.00 10.00 16.00 10.00 1 1 1 125 185
 57 50.00 35.00 10.00 19.00 20.00 1 1 1 115 175
 58 30.00 25.00 10.00 23.00 10.00 1 1 1 81 141
 59 15.00 10.00 10.00 20.00 10.00 1 1 1 122 182
 60 10.00 20.00 10.00 19.00 20.00 1 1 1 42 102
 61 15.00 60.00 10.00 17.00 20.00 1 1 1 140 200
 62 45.00 65.00 10.00 9.00 20.00 1 1 1 51 111
 63 65.00 35.00 10.00 3.00 30.00 1 1 1 37 97
 64 65.00 20.00 10.00 6.00 10.00 1 1 1 39 99
 65 45.00 30.00 10.00 17.00 31.00 1 1 1 38 98
 66 35.00 40.00 10.00 16.00 23.00 1 1 1 11 71
 67 41.00 37.00 10.00 16.00 20.00 1 1 1 118 178
 68 64.00 42.00 10.00 9.00 8.00 1 1 1 55 115
 69 40.00 60.00 10.00 21.00 30.00 1 1 1 129 189
 70 31.00 52.00 10.00 27.00 9.00 1 1 1 26 86
 71 35.00 69.00 10.00 23.00 10.00 1 1 1 150 210
 72 65.00 55.00 10.00 14.00 30.00 1 1 1 50 110
 73 63.00 65.00 10.00 8.00 19.00 1 1 1 27 87
 74 2.00 60.00 10.00 5.00 30.00 1 1 1 62 122
 75 20.00 20.00 10.00 8.00 10.00 1 1 1 126 186
 76 5.00 5.00 10.00 16.00 13.00 1 1 1 59 119
 77 60.00 12.00 10.00 31.00 10.00 1 1 1 60 120
 78 23.00 3.00 10.00 7.00 10.00 1 1 1 120 180
 79 8.00 56.00 10.00 27.00 27.00 1 1 1 75 135
 80 6.00 68.00 10.00 30.00 20.00 1 1 1 74 134
 81 47.00 47.00 10.00 13.00 16.00 1 1 1 162 222
 82 49.00 58.00 10.00 10.00 20.00 1 1 1 71 131
 83 27.00 43.00 10.00 9.00 10.00 1 1 1 27 87
 84 37.00 31.00 10.00 14.00 10.00 1 1 1 20 80
 85 57.00 29.00 10.00 18.00 30.00 1 1 1 81 141
 86 63.00 23.00 10.00 2.00 10.00 1 1 1 72 132
 87 21.00 24.00 10.00 28.00 14.00 1 1 1 72 132
 88 12.00 24.00 10.00 13.00 9.00 1 1 1 75 135
 89 24.00 58.00 10.00 19.00 15.00 1 1 1 52 112
 90 67.00 5.00 10.00 25.00 10.00 1 1 1 117 177
 91 37.00 47.00 10.00 6.00 18.00 1 1 1 71 131
 92 49.00 42.00 10.00 13.00 40.00 1 1 1 152 212
 93 53.00 43.00 10.00 14.00 6.00 1 1 1 14 74
 94 61.00 52.00 10.00 3.00 17.00 1 1 1 148 208
 95 57.00 48.00 10.00 23.00 20.00 1 1 1 80 140
 96 56.00 37.00 10.00 6.00 30.00 1 1 1 20 80
 97 55.00 54.00 10.00 26.00 3.00 1 1 1 117 177
 98 4.00 18.00 10.00 35.00 3.00 1 1 1 105 165
 99 26.00 52.00 10.00 9.00 16.00 1 1 1 31 91
 100 26.00 35.00 10.00 15.00 20.00 1 1 1 62 122
 101 31.00 67.00 10.00 3.00 8.00 1 1 1 150 210
